NumGames = 9;
NumReferees = 27;
NumFields = 4;
game_start = [710, 790, 1160, 1230, 840, 945, 600, 1110, 780];
game_end = [830, 910, 1280, 1350, 960, 1065, 720, 1230, 900];
difficulty = [1, 1, 1, 1, 1, 1, 2, 2, 2];
game_field = [1, 1, 1, 1, 2, 2, 3, 3, 4];
main_exp = [128, 124, 23, 24, 45, 147, 105, 135, 12, 25, 9, 12, 57, 4, 12, 21, 0, 14, 2, 1, 0, 2, 18, 5, 6, 5, 0];
assist_exp = [3, 81, 62, 44, 51, 99, 79, 101, 46, 27, 36, 61, 106, 23, 97, 3, 29, 66, 12, 12, 15, 24, 59, 0, 24, 3, 0];
available_slots = array3d(1..NumReferees, 1..10, 1..2,[
  0,1440, 0,0, 0,0, 0,0, 0,0, 0,0, 0,0, 0,0, 0,0, 0,0,
  550,1271, 0,0, 0,0, 0,0, 0,0, 0,0, 0,0, 0,0, 0,0, 0,0,
  0,1440, 0,0, 0,0, 0,0, 0,0, 0,0, 0,0, 0,0, 0,0, 0,0,
  480,780, 0,0, 0,0, 0,0, 0,0, 0,0, 0,0, 0,0, 0,0, 0,0,
  660,1110, 0,0, 0,0, 0,0, 0,0, 0,0, 0,0, 0,0, 0,0, 0,0,
  480,1094, 0,0, 0,0, 0,0, 0,0, 0,0, 0,0, 0,0, 0,0, 0,0,
  0,1080, 1200,1439, 0,0, 0,0, 0,0, 0,0, 0,0, 0,0, 0,0, 0,0,
  0,1440, 0,0, 0,0, 0,0, 0,0, 0,0, 0,0, 0,0, 0,0, 0,0,
  720,1410, 0,0, 0,0, 0,0, 0,0, 0,0, 0,0, 0,0, 0,0, 0,0,
  1230,1380, 0,0, 0,0, 0,0, 0,0, 0,0, 0,0, 0,0, 0,0, 0,0,
  600,1080, 0,0, 0,0, 0,0, 0,0, 0,0, 0,0, 0,0, 0,0, 0,0,
  600,900, 0,0, 0,0, 0,0, 0,0, 0,0, 0,0, 0,0, 0,0, 0,0,
  600,900, 0,0, 0,0, 0,0, 0,0, 0,0, 0,0, 0,0, 0,0, 0,0,
  840,960, 0,0, 0,0, 0,0, 0,0, 0,0, 0,0, 0,0, 0,0, 0,0,
  0,1440, 0,0, 0,0, 0,0, 0,0, 0,0, 0,0, 0,0, 0,0, 0,0,
  1080,1320, 0,0, 0,0, 0,0, 0,0, 0,0, 0,0, 0,0, 0,0, 0,0,
  540,780, 0,0, 0,0, 0,0, 0,0, 0,0, 0,0, 0,0, 0,0, 0,0,
  600,1080, 0,0, 0,0, 0,0, 0,0, 0,0, 0,0, 0,0, 0,0, 0,0,
  600,720, 780,1080, 1110,1230, 0,0, 0,0, 0,0, 0,0, 0,0, 0,0, 0,0,
  1020,1260, 0,0, 0,0, 0,0, 0,0, 0,0, 0,0, 0,0, 0,0, 0,0,
  0,1440, 0,0, 0,0, 0,0, 0,0, 0,0, 0,0, 0,0, 0,0, 0,0,
  0,840, 1050,1410, 0,0, 0,0, 0,0, 0,0, 0,0, 0,0, 0,0, 0,0,
  720,1440, 0,0, 0,0, 0,0, 0,0, 0,0, 0,0, 0,0, 0,0, 0,0,
  0,1440, 0,0, 0,0, 0,0, 0,0, 0,0, 0,0, 0,0, 0,0, 0,0,
  780,1410, 0,0, 0,0, 0,0, 0,0, 0,0, 0,0, 0,0, 0,0, 0,0,
  570,840, 1230,1350, 0,0, 0,0, 0,0, 0,0, 0,0, 0,0, 0,0, 0,0,
  -720,720, 0,0, 0,0, 0,0, 0,0, 0,0, 0,0, 0,0, 0,0, 0,0,
]);